
Log started (V11.0.0) Thu May 15 07:32:32 2008

Tried aggregator 1 time.
Reduced MIP has 220 rows, 4001 columns, and 8020 nonzeros.
Presolve time =    0.03 sec.
Clique table members: 200.
MIP emphasis: balance optimality and feasibility.
MIP search method: dynamic search.
Parallel mode: none, using 1 thread.
Root relaxation solution time =    0.09 sec.

        Nodes                                         Cuts/
   Node  Left     Objective  IInf  Best Integer     Best Node    ItCnt     Gap

*     0+    0                        17520.0000      401.4955      408   97.71%
*     0+    0                          437.0000      401.4955      408    8.12%
      0     0      402.0848    41      437.0000      Fract: 6      435    7.99%
      0     0      405.5671    52      437.0000      Cuts: 13      675    7.19%
      0     0      407.8728    54      437.0000    MIRcuts: 7      941    6.67%
      0     0      408.5991    50      437.0000       Cuts: 5      970    6.50%
      0     0      408.9600    49      437.0000       Cuts: 3     1000    6.42%
*     0+    0                          436.0000      408.9600     1000    6.20%
      0     0      409.3958    47      436.0000       Cuts: 4     1016    6.10%
      0     0      409.4485    50      436.0000     Covers: 3     1021    6.09%
      0     0      409.8083    47      436.0000       Cuts: 3     1046    6.01%
*     0+    0                          432.0000      409.8083     1046    5.14%
      0     0      409.8083    47      432.0000       Cuts: 2     1047    5.14%
      0     0      412.0682    32      432.0000       Cuts: 4     1082    4.61%
      0     0      412.5958    48      432.0000       Cuts: 5     1098    4.49%
      0     0      412.6111    52      432.0000       Cuts: 4     1103    4.49%
*     0+    0                          431.0000      412.6111     1103    4.27%
*     0+    0                          425.0000      412.6111     1103    2.92%
      0     2      413.0000    48      425.0000      412.6111     1103    2.92%
    100    66      414.8941    24      425.0000      413.3372     2568    2.74%
    200   120      414.0280    29      425.0000      413.3372     4376    2.74%
    300   173      415.3751    30      425.0000      413.3372     6328    2.74%
    400   228      417.2370    20      425.0000      413.3372     7776    2.74%
    500   313      416.0000    23      425.0000      413.3372     9291    2.74%
*   511+  214                          424.0000      417.2960    10573    1.58%
*   511+  142                          423.0000      417.2960    10573    1.35%
    600   173      418.0000    14      423.0000      418.0000    11543    1.18%
    700   184      421.0000    17      423.0000      418.0000    13140    1.18%
    800   186        cutoff            423.0000      418.0000    16045    1.18%
    900   216    infeasible            423.0000      418.0000    18380    1.18%
   1000   223        cutoff            423.0000      418.0000    19251    1.18%
Elapsed time =  16.95 sec. (tree size =  0.97 MB, solutions = 8)
*  1055   150      integral     0      422.0000      418.0000    22268    0.95%
   1100   109        cutoff            422.0000      420.0000    23818    0.47%
   1200     9        cutoff            422.0000      421.0000    29224    0.24%

Cover cuts applied:  31
Mixed integer rounding cuts applied:  14
Gomory fractional cuts applied:  1

Solution pool: 9 solutions saved.

MIP - Integer optimal solution:  Objective = 4.2200000000e+002
Solution time =   19.28 sec.  Iterations = 30307  Nodes = 1210


Incumbent solution
Variable Name           Solution Value
Cmax                        422.000000
X_1_5                         1.000000
X_1_9                        -0.000000
X_2_3                         1.000000
X_3_4                         1.000000
X_4_8                         1.000000
X_5_7                         1.000000
X_6_11                        1.000000
X_7_20                        1.000000
X_8_7                         1.000000
X_9_7                         1.000000
X_10_11                       1.000000
X_11_4                        1.000000
X_12_5                        1.000000
X_13_12                       1.000000
X_14_10                       1.000000
X_15_7                        1.000000
X_16_19                       1.000000
X_17_7                        1.000000
X_18_7                        1.000000
X_19_20                       1.000000
X_20_9                        1.000000
X_21_4                        1.000000
X_22_11                       1.000000
X_23_7                        1.000000
X_24_2                        1.000000
X_25_7                        1.000000
X_26_19                       1.000000
X_27_9                        1.000000
X_28_7                        1.000000
X_29_17                       1.000000
X_30_7                        1.000000
X_31_7                        1.000000
X_32_15                       1.000000
X_33_7                        1.000000
X_34_7                        1.000000
X_35_11                       1.000000
X_36_10                       1.000000
X_37_7                        1.000000
X_38_7                        1.000000
X_39_13                       1.000000
X_40_6                        1.000000
X_41_1                        1.000000
X_42_13                       1.000000
X_43_8                        1.000000
X_44_14                       1.000000
X_45_11                       1.000000
X_46_9                        1.000000
X_47_8                        1.000000
X_48_8                        1.000000
X_49_7                        1.000000
X_50_15                       1.000000
X_51_18                       1.000000
X_52_9                        1.000000
X_53_6                        1.000000
X_54_7                        1.000000
X_55_16                       1.000000
X_56_7                        1.000000
X_57_8                        1.000000
X_58_7                        1.000000
X_59_7                        1.000000
X_60_3                        1.000000
X_61_2                        1.000000
X_62_13                       1.000000
X_63_8                        1.000000
X_64_19                       1.000000
X_65_7                        1.000000
X_66_11                       1.000000
X_67_7                        1.000000
X_68_1                        1.000000
X_69_14                       1.000000
X_70_6                        1.000000
X_71_13                       1.000000
X_72_17                       1.000000
X_73_3                        1.000000
X_74_9                        1.000000
X_75_2                        1.000000
X_75_5                       -0.000000
X_76_15                       1.000000
X_77_7                        1.000000
X_78_3                       -0.000000
X_78_12                       1.000000
X_79_7                        1.000000
X_80_16                       1.000000
X_81_4                        1.000000
X_82_12                       1.000000
X_83_7                        1.000000
X_84_7                        1.000000
X_85_8                        1.000000
X_86_18                       1.000000
X_87_11                       1.000000
X_88_8                        1.000000
X_89_7                        1.000000
X_90_17                       1.000000
X_91_4                        1.000000
X_92_8                        1.000000
X_93_4                        1.000000
X_94_2                       -0.000000
X_94_4                        1.000000
X_95_7                        1.000000
X_96_7                        1.000000
X_97_8                        1.000000
X_98_9                        1.000000
X_99_8                        1.000000
X_100_14                      1.000000
X_101_7                       1.000000
X_102_8                       1.000000
X_103_2                       1.000000
X_104_7                       1.000000
X_104_11                     -0.000000
X_105_7                       1.000000
X_106_2                       1.000000
X_107_18                      1.000000
X_108_18                      1.000000
X_109_7                       1.000000
X_110_18                      1.000000
X_111_20                      1.000000
X_112_9                       1.000000
X_112_12                     -0.000000
X_113_11                      1.000000
X_114_5                       1.000000
X_115_7                       1.000000
X_116_7                       1.000000
X_117_5                       1.000000
X_118_11                      1.000000
X_119_14                      1.000000
X_120_11                      1.000000
X_121_13                      1.000000
X_122_6                       1.000000
X_123_7                       1.000000
X_124_14                      1.000000
X_125_7                       1.000000
X_126_20                      1.000000
X_127_19                      1.000000
X_128_8                       1.000000
X_129_7                       1.000000
X_130_10                      1.000000
X_131_18                      1.000000
X_132_8                       1.000000
X_133_8                       1.000000
X_134_18                      1.000000
X_135_17                      1.000000
X_136_7                       1.000000
X_136_18                      0.000000
X_137_15                      1.000000
X_138_7                       1.000000
X_139_2                       1.000000
X_140_7                       1.000000
X_141_18                      1.000000
X_142_7                       1.000000
X_143_20                      1.000000
X_144_7                       1.000000
X_145_7                       1.000000
X_146_7                       1.000000
X_147_16                      1.000000
X_148_13                      1.000000
X_149_7                       1.000000
X_150_4                       1.000000
X_151_19                      1.000000
X_152_18                      1.000000
X_153_7                       1.000000
X_154_8                       1.000000
X_155_7                       1.000000
X_156_7                       1.000000
X_157_7                       1.000000
X_158_7                       1.000000
X_159_8                       1.000000
X_160_3                       1.000000
X_161_8                       1.000000
X_162_8                       1.000000
X_163_3                       1.000000
X_163_18                     -0.000000
X_164_9                       1.000000
X_165_15                      1.000000
X_166_10                      1.000000
X_167_9                       1.000000
X_168_9                       1.000000
X_169_13                      1.000000
X_170_12                      1.000000
X_171_7                       1.000000
X_172_9                       1.000000
X_173_7                       1.000000
X_174_7                       1.000000
X_175_8                       1.000000
X_176_5                       1.000000
X_177_7                       1.000000
X_178_1                       1.000000
X_179_19                      1.000000
X_180_7                       1.000000
X_181_16                      1.000000
X_182_18                      1.000000
X_183_7                       1.000000
X_184_1                       1.000000
X_185_8                       1.000000
X_186_7                       1.000000
X_187_8                       1.000000
X_188_15                      1.000000
X_189_17                      1.000000
X_190_6                       1.000000
X_191_7                       1.000000
X_192_4                       1.000000
X_193_2                       1.000000
X_194_13                      1.000000
X_195_4                       1.000000
X_196_7                       1.000000
X_197_19                      1.000000
X_198_11                      1.000000
X_199_7                       1.000000
X_200_9                       1.000000
All other variables in the range 1-4001 are 0.
